

num_rows = 16; %% height
num_cols = 24; %% width

vertical_cell_lines	 = 1;
horizontal_cell_lines = 1;

allow_empty_wells = false;
size_empty_edge = 1;

% New and used!
concentrations_on_different_rows = true;
concentrations_on_different_columns = true;

% New and unused! (Restriction: replicates_on_different_plates /\ replicates_on_same_plate == false)
replicates_on_different_plates = false;
replicates_on_same_plate = true;

%%% Compounds %%%
compounds = 2*3*8*2; %% number of drugs/compounds
compound_concentrations	 = [ 3 | i in 1..compounds];
compound_replicates	 = [ 1 | i in 1..compounds];

compound_names = ["Drug \(i)" | i in 1..compounds];
compound_concentration_names =array2d(1..compounds, 1..3,["conc\((i mod 3) + 1)" | i in 1..compounds*3]);  

compound_concentration_indicators = ["" | i in 1..max(compound_concentrations)];
 


%%% Combinations %%%
combinations = 0;
combination_concentrations = 0;
combination_names = [];
combination_concentration_names = [];


%% Controls %%
num_controls = 1;
control_concentrations = [1];

control_replicates = [20];
control_concentration_names = [|"1"|];

control_names = ["[DMSO]"];


 